#.\compute_packing.py
# GMT Fri Nov 15 08:30:10 2024
# 
87988
20218
108037
182421
6149
404
600690
356545
193413
214997
533448
17737
171313
390264
260312
113419
38255
74261
193471
270973
219323
178531
409971
215999
214794
27482
54298
241567
28422
409408
337245
37124
465520
384567
624864
190100
166768
95321
393247
62433
72562
36394
574978
285241
27591
210134
575614
87016
265296
452581
87994
208680
455696
13245
113147
207431
454971
496018
219930
176324
136804
177657
318228
655619
147568
607150
431487
167784
9554
38393
428615
154574
390965
151293
4645
325606
350784
141856
300723
237827
97378
118946
179170
419055
8439
175679
139852
572407
19607
31299
95207
281518
126082
3338
203670
353891
59864
281532
37165
62294
